Instance name : DPDPTW_R_bar-n100-1_fixed_limited_fleet
Authors : 
Date : 
Reference 
Solution
Route 1 : 31 40 12 21 81 62 9 59 8 71 46 90 96 58 
Route 2 : 20 28 49 70 11 78 99 61 38 88 
Route 3 : 23 1 73 51 50 36 100 86 
Route 4 : 5 55 13 63 35 2 52 16 66 19 85 69 4 54 
Route 5 : 26 76 41 17 67 10 29 60 91 3 22 79 72 53 
Route 6 : 14 64 30 33 80 7 57 39 27 77 89 83 48 34 84 6 56 37 98 87 
Route 7 : 15 32 82 24 47 74 65 43 97 18 93 25 68 75 
